n_res = 4;
rc = [ 14, 14, 15, 14 ];
n_tasks = 30;
d = [ 1, 8, 10, 3, 2, 8, 7, 1, 8, 4, 10, 5, 8, 8, 5, 5, 7, 10, 8, 8, 9, 1, 6, 2, 1, 10, 4, 3, 2, 1 ];
rr = [| 14, 14, 14, 14, 14, 14, 14, 14, 14, 14, 14, 14, 14, 14, 14, 14, 14, 14, 14, 14, 14, 14, 14, 14, 14, 14, 14, 14, 14, 14
      | 14, 14, 14, 14, 14, 14, 14, 14, 14, 14, 14, 14, 14, 14, 14, 14, 14, 14, 14, 14, 14, 14, 14, 14, 14, 14, 14, 14, 14, 14
      | 15, 15, 15, 15, 15, 15, 15, 15, 15, 15, 15, 15, 15, 15, 15, 15, 15, 15, 15, 15, 15, 15, 15, 15, 15, 15, 15, 15, 15, 15
      | 14, 14, 14, 14, 14, 14, 14, 14, 14, 14, 14, 14, 14, 14, 14, 14, 14, 14, 14, 14, 14, 14, 14, 14, 14, 14, 14, 14, 14, 14|];
suc = [ { 4, 11, 12 },
       { 6, 15, 17 },
       { 5, 9, 16 },
       { 7, 13, 16 },
       { 6, 15, 19 },
       { 8, 23, 28 },
       { 10, 15, 18 },
       { 13 },
       { 11, 21 },
       { 14, 19, 28 },
       { 14, 17, 18 },
       { 13, 14, 21 },
       { 22, 24, 25 },
       { 23, 26 },
       { 21, 26 },
       { 17, 18, 28 },
       { 19, 22 },
       { 20, 23, 25 },
       { 24, 27 },
       { 22, 30 },
       { 25, 30 },
       { 26 },
       { 24, 27 },
       { 29, 30 },
       { 29 },
       { 27 },
       { 29 },
       {  },
       {  },
       {  } ];
